1952.40 0
0 19 14 22 12 15 0
0 24 73 75 74 70 72 0
0 68 32 46 37 34 36 31 33 40 39 41 28 30 67 58 44 29 60 83 13 27 0
0 61 55 57 63 43 35 45 49 53 0
0 17 96 91 88 94 98 95 89 93 0
0 11 97 99 26 0
0 59 54 42 48 47 38 56 62 0
0 25 64 65 66 50 87 84 86 82 81 85 0
0 71 69 77 78 79 76 80 51 52 0
0 21 7 100 6 8 9 2 1 10 5 3 4 16 0
0 23 90 92 18 20 0
